k = 16;
b = 8;
AtomicConstraints =  [|
3, 1|
	3, 2|
	4, 1|
	4, 2|
	5, 1|
	5, 2|
	5, 3|
	5, 4|
	6, 1|
	6, 2|
	6, 3|
	6, 4|
	7, 1|
	7, 2|
	7, 3|
	7, 4|
	7, 5|
	7, 6|
	8, 1|
	8, 2|
	8, 3|
	8, 4|
	8, 5|
	8, 6|
	16, 11|
	16, 10|
	16, 9|
	15, 11|
	15, 12|
	15, 10|
	15, 9|
	14, 10|
	13, 10|
	13, 9|];
DisjunctiveConstraints =  [|7, 2, 10, 7|
	14, 10, 14, 2|
	13, 9, 13, 1|];
SoftAtomicConstraints =  [|
2, 1|
4, 3|
6, 5|
8, 7|
11, 9|
9, 10|
12, 11|
16, 13|
13, 14|
15, 16|];
DirectSuccessors =  [];
